
Gurobi 10.0.1 (win64) logging started Sat Sep  9 01:38:32 2023

Set parameter LogFile to value "results-heuristic-start//log/BA_02_makespan.log"
Gurobi Optimizer version 10.0.1 build v10.0.1rc0 (win64)

CPU model: AMD Ryzen 7 3700X 8-Core Processor, instruction set [SSE2|AVX|AVX2]
Thread count: 8 physical cores, 16 logical processors, using up to 16 threads

Optimize a model with 27 rows, 25 columns and 74 nonzeros
Model fingerprint: 0x25828c66
Variable types: 4 continuous, 21 integer (20 binary)
Coefficient statistics:
  Matrix range     [1e+00, 1e+06]
  Objective range  [1e+00, 1e+00]
  Bounds range     [1e+00, 1e+00]
  RHS range        [1e+00, 3e+06]

User MIP start produced solution with objective 374 (0.00s)
Loaded user MIP start with objective 374

Presolve removed 20 rows and 19 columns
Presolve time: 0.00s
Presolved: 7 rows, 6 columns, 19 nonzeros
Variable types: 3 continuous, 3 integer (2 binary)
Found heuristic solution: objective 373.0000000

Root relaxation: objective 4.400000e+01, 2 iterations, 0.00 seconds (0.00 work units)

    Nodes    |    Current Node    |     Objective Bounds      |     Work
 Expl Unexpl |  Obj  Depth IntInf | Incumbent    BestBd   Gap | It/Node Time

     0     0   44.00000    0    2  373.00000   44.00000  88.2%     -    0s
H    0     0                      44.0000000   44.00000  0.00%     -    0s
     0     0   44.00000    0    2   44.00000   44.00000  0.00%     -    0s

Explored 1 nodes (2 simplex iterations) in 0.00 seconds (0.00 work units)
Thread count was 16 (of 16 available processors)

Solution count 3: 44 373 374 

Optimal solution found (tolerance 1.00e-04)
Best objective 4.400000000000e+01, best bound 4.400000000000e+01, gap 0.0000%
Warning: constraint name "precedence between 0,1 to 0,0 if x_[j,l,h,z,i]=1" has a space
Warning: constraint name "precedence between 0,1 to 0,0 if x_[j,l,h,z,i]=1" has a space
Warning: default constraint names used to write mps file
